############################################################################################
#                                       SECTION: basic                                      
############################################################################################
 ecut 38
 nband 8
 occopt 4
 ngkpt 12 12 12
 kptopt 3
 nshiftk 1
 shiftk 0 0 0
 tolvrs 1e-10
############################################################################################
#                                        SECTION: dev                                       
############################################################################################
 iomode 3
############################################################################################
#                                       SECTION: dfpt                                       
############################################################################################
 rfphon 1
 rfatpol 2 2
 rfdir 0 1 0
############################################################################################
#                                       SECTION: files                                      
############################################################################################
 prtwf -1
 prtden 0
 irdwfk 1
############################################################################################
#                                      SECTION: gstate                                      
############################################################################################
 tsmear 0.02
 nqpt 1
 qpt    0.5000000000    0.0000000000    0.5000000000
############################################################################################
#                                       SECTION: paral                                      
############################################################################################
 paral_kgb 0
 nppert 1
 npkpt 12
############################################################################################
#                                         STRUCTURE                                         
############################################################################################
 natom 3
 ntypat 2
 typat 1 2 2
 znucl 12 5
 xred
    0.0000000000    0.0000000000    0.0000000000
    0.3333333333    0.6666666667    0.5000000000
    0.6666666667    0.3333333333    0.5000000000
 acell    1.0    1.0    1.0
 rprim
    5.0503958640    2.9158474116    0.0000000000
   -5.0503958640    2.9158474116    0.0000000000
    0.0000000000    0.0000000000    6.6575051400


#<JSON>
#{
#    "pseudos": [
#        {
#            "basename": "B.psp8",
#            "type": "NcAbinitPseudo",
#            "symbol": "B",
#            "Z": 5,
#            "Z_val": 3.0,
#            "l_max": 1,
#            "md5": "4278579c7f52ea284992fe83a385c953",
#            "filepath": "/scratch/users/g/m/gmatteo/MgB2_eph4isotc/B.psp8",
#            "@module": "pymatgen.io.abinit.pseudos",
#            "@class": "NcAbinitPseudo"
#        },
#        {
#            "basename": "Mg-low.psp8",
#            "type": "NcAbinitPseudo",
#            "symbol": "Mg",
#            "Z": 12,
#            "Z_val": 2.0,
#            "l_max": 1,
#            "md5": "a4c9f488f59536bf035ba1dadb841112",
#            "filepath": "/scratch/users/g/m/gmatteo/MgB2_eph4isotc/Mg-low.psp8",
#            "@module": "pymatgen.io.abinit.pseudos",
#            "@class": "NcAbinitPseudo"
#        }
#    ]
#}
#</JSON>
